;test regex \s*use\s+(.*?)([\r]{0,1}\n)
(declare-const X String)
(assert (str.in_re X (re.++ (re.* (re.union (str.to_re " ") (re.union (str.to_re "\u{0b}") (re.union (str.to_re "\u{0a}") (re.union (str.to_re "\u{0d}") (re.union (str.to_re "\u{09}") (str.to_re "\u{0c}"))))))) (re.++ (str.to_re "u") (re.++ (str.to_re "s") (re.++ (str.to_re "e") (re.++ (re.+ (re.union (str.to_re " ") (re.union (str.to_re "\u{0b}") (re.union (str.to_re "\u{0a}") (re.union (str.to_re "\u{0d}") (re.union (str.to_re "\u{09}") (str.to_re "\u{0c}"))))))) (re.++ (re.* (re.diff re.allchar (str.to_re "\n"))) (re.++ ((_ re.loop 0 1) (str.to_re "\u{0d}")) (str.to_re "\u{0a}"))))))))))
; sanitize danger characters:  < > ' " &
(assert (not (str.in_re X (re.++ re.all (re.union (str.to_re "\u{3c}") (str.to_re "\u{3e}") (str.to_re "\u{27}") (str.to_re "\u{22}") (str.to_re "\u{26}")) re.all))))
(assert (< 10 (str.len X)))
(check-sat)
(get-model)